\ SCIP STATISTICS
\   Problem name     : CapacitatedFacilityLocation-20-10
\   Variables        : 210 (210 binary, 0 integer, 0 implicit integer, 0 continuous)
\   Constraints      : 231
Minimize
 Obj: +1110.79372954447 x0 +815.056298143779 x1 +987.371260676173 x2 +709.768776140958 x3 +542.478883789474 x4
      +1070.3174103426 x5 +928.38880490597 x6 +779.857956393923 x7 +1182.24929057866 x8 +434.802466359189 x9
      +101.883422726217 x10 +75.3595554956081 x11 +118.226120207481 x12 +168.54002546399 x13 +105.059974081633 x14
      +74.8091243486096 x15 +97.5192354640093 x16 +64.2882764741484 x17 +8.35117074474355 x18 +135.565422565886 x19
      +143.420774030825 x20 +62.8058529154354 x21 +53.8770828302175 x22 +120.948386025462 x23 +121.899591474274 x24
      +80.2184309480263 x25 +184.42041185876 x26 +160.455628716598 x27 +95.033398173278 x28 +57.4445067964321 x29
      +77.325447727561 x30 +59.3597083901723 x31 +67.9606399361337 x32 +58.2402659179818 x33 +17.2015346031785 x34
      +61.9653587483077 x35 +18.7934330206054 x36 +59.7796199268902 x37 +34.1516448193199 x38 +63.830007711924 x39
      +84.8950528720148 x40 +53.9912142734481 x41 +65.5096027480566 x42 +69.706349628559 x43 +31.3415993065982 x44
      +58.9081349962737 x45 +53.1927909154325 x46 +70.7912292529357 x47 +28.0757758707723 x48 +63.1280431459509 x49
      +108.7246945202 x50 +73.9631366066667 x51 +86.2091544981931 x52 +80.6203355518146 x53 +26.4163572586833 x54
      +79.509120933667 x55 +53.3498135506762 x56 +88.8209949617027 x57 +40.2761821589544 x58 +80.5742127861065 x59
      +68.1526062854162 x60 +40.1138886662052 x61 +13.5186827903464 x62 +73.4453583946899 x63 +92.4820264815367 x64
      +45.9686349944626 x65 +121.85110034499 x66 +93.7619875132108 x67 +75.3614842877467 x68 +29.8362267861709 x69
      +25.7845383723318 x70 +68.9040951285689 x71 +132.554986658366 x72 +280.069533921423 x73 +243.0583730786 x74
      +48.3196905549594 x75 +250.040107366688 x76 +96.9429540652022 x77 +121.795234367498 x78 +190.995219804656 x79
      +238.553296444151 x80 +159.22872860014 x81 +110.775341034126 x82 +56.0495339968223 x83 +154.567637046658 x84
      +177.004761429343 x85 +250.307815181785 x86 +262.812084557947 x87 +190.681328511699 x88 +54.0247648037054 x89
      +96.8467793716667 x90 +44.8675513996041 x91 +1.35494245541171 x92 +108.189235056733 x93 +126.731079575152 x94
      +56.052513925491 x95 +170.523018289334 x96 +129.912927536925 x97 +97.0386960357705 x98 +41.0675505735384 x99
      +32.8720442913277 x100 +11.1003913325791 x101 +12.9414742118957 x102 +62.0183862250891 x103 +63.4195013669127 x104
      +14.7577569300788 x105 +78.3962768357822 x106 +50.7002949966477 x107 +40.4704723495846 x108 +31.8045498289403 x109
      +253.0708356301 x110 +177.629606699047 x111 +185.070063833018 x112 +124.541518458169 x113 +11.2788113977349 x114
      +191.417121215082 x115 +123.779718045001 x116 +220.23526835061 x117 +125.848600047818 x118 +156.777749706607 x119
      +59.1244698747635 x120 +33.1619662433038 x121 +37.1997881127706 x122 +139.310444729088 x123 +143.581737777941 x124
      +34.6820772654544 x125 +170.593143693035 x126 +104.494747990625 x127 +93.0788294766976 x128 +76.7234518883322 x129
      +16.1319286522017 x130 +13.1518055049705 x131 +13.9780345935634 x132 +42.6594904562553 x133 +44.3115222387514 x134
      +12.7505742542766 x135 +51.2816886893951 x136 +30.7657094293378 x137 +29.5389486180129 x138 +24.9148862511305 x139
      +24.6259117018435 x140 +8.73115451197177 x141 +11.0260755123059 x142 +49.4105960602976 x143 +50.29706718844 x144
      +11.0996726101698 x145 +61.5442751150875 x146 +39.0819036805565 x147 +31.8499264468978 x148 +25.8442107322211 x149
      +31.6535729173847 x150 +24.2543860390077 x151 +47.0676595724306 x152 +81.5118487100019 x153 +59.6399165432219 x154
      +21.7137305740109 x155 +58.8911926498817 x156 +23.3078406597046 x157 +16.4361803620258 x158 +59.8851140762006 x159
      +67.1843014584244 x160 +12.4921817527209 x161 +63.1635547924321 x162 +157.482307807398 x163 +134.720259656836 x164
      +16.2039608809759 x165 +156.969217187587 x166 +88.0540772578043 x167 +61.5126316019839 x168 +97.3391928578362 x169
      +66.9172677568179 x170 +42.2809473105115 x171 +28.7106859597747 x172 +18.1855391982764 x173 +42.4599944234579 x174
      +47.7716536589281 x175 +70.8438730067858 x176 +73.6068273231049 x177 +51.3954267309885 x178 +11.2443174268668 x179
      +71.6360839160461 x180 +52.8378538023542 x181 +61.3032298339369 x182 +54.4947361829802 x183 +15.4543305495937 x184
      +55.6197640722859 x185 +23.2570309498743 x186 +55.8928544780563 x187 +28.7735094814581 x188 +57.702883678836 x189
      +62.1320684699788 x190 +55.0671800807631 x191 +114.427230888698 x192 +212.433380377001 x193 +164.368233149603 x194
      +44.482566417578 x195 +163.945533960864 x196 +57.2285670165678 x197 +57.991027455633 x198 +151.940890527086 x199
      +59.7450274057991 x200 +44.9095839810829 x201 +57.856376984663 x202 +63.2124283582074 x203 +28.666333416437 x204
      +46.3692633515045 x205 +23.9396694814993 x206 +41.7634704525743 x207 +16.6129367443142 x208 +59.0099853007379 x209
Subject to
 c0: +1 x10 +1 x11 +1 x12 +1 x13 +1 x14 +1 x15 +1 x16 +1 x17 +1 x18 +1 x19 >= +1
 c1: +1 x20 +1 x21 +1 x22 +1 x23 +1 x24 +1 x25 +1 x26 +1 x27 +1 x28 +1 x29 >= +1
 c2: +1 x30 +1 x31 +1 x32 +1 x33 +1 x34 +1 x35 +1 x36 +1 x37 +1 x38 +1 x39 >= +1
 c3: +1 x40 +1 x41 +1 x42 +1 x43 +1 x44 +1 x45 +1 x46 +1 x47 +1 x48 +1 x49 >= +1
 c4: +1 x50 +1 x51 +1 x52 +1 x53 +1 x54 +1 x55 +1 x56 +1 x57 +1 x58 +1 x59 >= +1
 c5: +1 x60 +1 x61 +1 x62 +1 x63 +1 x64 +1 x65 +1 x66 +1 x67 +1 x68 +1 x69 >= +1
 c6: +1 x70 +1 x71 +1 x72 +1 x73 +1 x74 +1 x75 +1 x76 +1 x77 +1 x78 +1 x79 >= +1
 c7: +1 x80 +1 x81 +1 x82 +1 x83 +1 x84 +1 x85 +1 x86 +1 x87 +1 x88 +1 x89 >= +1
 c8: +1 x90 +1 x91 +1 x92 +1 x93 +1 x94 +1 x95 +1 x96 +1 x97 +1 x98 +1 x99 >= +1
 c9: +1 x100 +1 x101 +1 x102 +1 x103 +1 x104 +1 x105 +1 x106 +1 x107 +1 x108 +1 x109 >= +1
 c10: +1 x110 +1 x111 +1 x112 +1 x113 +1 x114 +1 x115 +1 x116 +1 x117 +1 x118 +1 x119 >= +1
 c11: +1 x120 +1 x121 +1 x122 +1 x123 +1 x124 +1 x125 +1 x126 +1 x127 +1 x128 +1 x129 >= +1
 c12: +1 x130 +1 x131 +1 x132 +1 x133 +1 x134 +1 x135 +1 x136 +1 x137 +1 x138 +1 x139 >= +1
 c13: +1 x140 +1 x141 +1 x142 +1 x143 +1 x144 +1 x145 +1 x146 +1 x147 +1 x148 +1 x149 >= +1
 c14: +1 x150 +1 x151 +1 x152 +1 x153 +1 x154 +1 x155 +1 x156 +1 x157 +1 x158 +1 x159 >= +1
 c15: +1 x160 +1 x161 +1 x162 +1 x163 +1 x164 +1 x165 +1 x166 +1 x167 +1 x168 +1 x169 >= +1
 c16: +1 x170 +1 x171 +1 x172 +1 x173 +1 x174 +1 x175 +1 x176 +1 x177 +1 x178 +1 x179 >= +1
 c17: +1 x180 +1 x181 +1 x182 +1 x183 +1 x184 +1 x185 +1 x186 +1 x187 +1 x188 +1 x189 >= +1
 c18: +1 x190 +1 x191 +1 x192 +1 x193 +1 x194 +1 x195 +1 x196 +1 x197 +1 x198 +1 x199 >= +1
 c19: +1 x200 +1 x201 +1 x202 +1 x203 +1 x204 +1 x205 +1 x206 +1 x207 +1 x208 +1 x209 >= +1
 c20: +22 x10 +26 x20 +9 x30 +13 x40 +15 x50 +12 x60 +30 x70 +26 x80 +19 x90 +9 x100 +29 x110 +18 x120
  +5 x130 +7 x140 +10 x150 +22 x160 +8 x170 +9 x180 +25 x190 +9 x200 -247 x0 <= +0
 c21: +22 x11 +26 x21 +9 x31 +13 x41 +15 x51 +12 x61 +30 x71 +26 x81 +19 x91 +9 x101 +29 x111 +18 x121
  +5 x131 +7 x141 +10 x151 +22 x161 +8 x171 +9 x181 +25 x191 +9 x201 -125 x1 <= +0
 c22: +22 x12 +26 x22 +9 x32 +13 x42 +15 x52 +12 x62 +30 x72 +26 x82 +19 x92 +9 x102 +29 x112 +18 x122
  +5 x132 +7 x142 +10 x152 +22 x162 +8 x172 +9 x182 +25 x192 +9 x202 -209 x2 <= +0
 c23: +22 x13 +26 x23 +9 x33 +13 x43 +15 x53 +12 x63 +30 x73 +26 x83 +19 x93 +9 x103 +29 x113 +18 x123
  +5 x133 +7 x143 +10 x153 +22 x163 +8 x173 +9 x183 +25 x193 +9 x203 -95 x3 <= +0
 c24: +22 x14 +26 x24 +9 x34 +13 x44 +15 x54 +12 x64 +30 x74 +26 x84 +19 x94 +9 x104 +29 x114 +18 x124
  +5 x134 +7 x144 +10 x154 +22 x164 +8 x174 +9 x184 +25 x194 +9 x204 -52 x4 <= +0
 c25: +22 x15 +26 x25 +9 x35 +13 x45 +15 x55 +12 x65 +30 x75 +26 x85 +19 x95 +9 x105 +29 x115 +18 x125
  +5 x135 +7 x145 +10 x155 +22 x165 +8 x175 +9 x185 +25 x195 +9 x205 -255 x5 <= +0
 c26: +22 x16 +26 x26 +9 x36 +13 x46 +15 x56 +12 x66 +30 x76 +26 x86 +19 x96 +9 x106 +29 x116 +18 x126
  +5 x136 +7 x146 +10 x156 +22 x166 +8 x176 +9 x186 +25 x196 +9 x206 -182 x6 <= +0
 c27: +22 x17 +26 x27 +9 x37 +13 x47 +15 x57 +12 x67 +30 x77 +26 x87 +19 x97 +9 x107 +29 x117 +18 x127
  +5 x137 +7 x147 +10 x157 +22 x167 +8 x177 +9 x187 +25 x197 +9 x207 -119 x7 <= +0
 c28: +22 x18 +26 x28 +9 x38 +13 x48 +15 x58 +12 x68 +30 x78 +26 x88 +19 x98 +9 x108 +29 x118 +18 x128
  +5 x138 +7 x148 +10 x158 +22 x168 +8 x178 +9 x188 +25 x198 +9 x208 -299 x8 <= +0
 c29: +22 x19 +26 x29 +9 x39 +13 x49 +15 x59 +12 x69 +30 x79 +26 x89 +19 x99 +9 x109 +29 x119 +18 x129
  +5 x139 +7 x149 +10 x159 +22 x169 +8 x179 +9 x189 +25 x199 +9 x209 -33 x9 <= +0
 c30: +247 x0 +125 x1 +209 x2 +95 x3 +52 x4 +255 x5 +182 x6 +119 x7 +299 x8 +33 x9 >= +323
 c31: +1 x10 -1 x0 <= +0
 c32: +1 x11 -1 x1 <= +0
 c33: +1 x12 -1 x2 <= +0
 c34: +1 x13 -1 x3 <= +0
 c35: +1 x14 -1 x4 <= +0
 c36: +1 x15 -1 x5 <= +0
 c37: +1 x16 -1 x6 <= +0
 c38: +1 x17 -1 x7 <= +0
 c39: +1 x18 -1 x8 <= +0
 c40: +1 x19 -1 x9 <= +0
 c41: +1 x20 -1 x0 <= +0
 c42: +1 x21 -1 x1 <= +0
 c43: +1 x22 -1 x2 <= +0
 c44: +1 x23 -1 x3 <= +0
 c45: +1 x24 -1 x4 <= +0
 c46: +1 x25 -1 x5 <= +0
 c47: +1 x26 -1 x6 <= +0
 c48: +1 x27 -1 x7 <= +0
 c49: +1 x28 -1 x8 <= +0
 c50: +1 x29 -1 x9 <= +0
 c51: +1 x30 -1 x0 <= +0
 c52: +1 x31 -1 x1 <= +0
 c53: +1 x32 -1 x2 <= +0
 c54: +1 x33 -1 x3 <= +0
 c55: +1 x34 -1 x4 <= +0
 c56: +1 x35 -1 x5 <= +0
 c57: +1 x36 -1 x6 <= +0
 c58: +1 x37 -1 x7 <= +0
 c59: +1 x38 -1 x8 <= +0
 c60: +1 x39 -1 x9 <= +0
 c61: +1 x40 -1 x0 <= +0
 c62: +1 x41 -1 x1 <= +0
 c63: +1 x42 -1 x2 <= +0
 c64: +1 x43 -1 x3 <= +0
 c65: +1 x44 -1 x4 <= +0
 c66: +1 x45 -1 x5 <= +0
 c67: +1 x46 -1 x6 <= +0
 c68: +1 x47 -1 x7 <= +0
 c69: +1 x48 -1 x8 <= +0
 c70: +1 x49 -1 x9 <= +0
 c71: +1 x50 -1 x0 <= +0
 c72: +1 x51 -1 x1 <= +0
 c73: +1 x52 -1 x2 <= +0
 c74: +1 x53 -1 x3 <= +0
 c75: +1 x54 -1 x4 <= +0
 c76: +1 x55 -1 x5 <= +0
 c77: +1 x56 -1 x6 <= +0
 c78: +1 x57 -1 x7 <= +0
 c79: +1 x58 -1 x8 <= +0
 c80: +1 x59 -1 x9 <= +0
 c81: +1 x60 -1 x0 <= +0
 c82: +1 x61 -1 x1 <= +0
 c83: +1 x62 -1 x2 <= +0
 c84: +1 x63 -1 x3 <= +0
 c85: +1 x64 -1 x4 <= +0
 c86: +1 x65 -1 x5 <= +0
 c87: +1 x66 -1 x6 <= +0
 c88: +1 x67 -1 x7 <= +0
 c89: +1 x68 -1 x8 <= +0
 c90: +1 x69 -1 x9 <= +0
 c91: +1 x70 -1 x0 <= +0
 c92: +1 x71 -1 x1 <= +0
 c93: +1 x72 -1 x2 <= +0
 c94: +1 x73 -1 x3 <= +0
 c95: +1 x74 -1 x4 <= +0
 c96: +1 x75 -1 x5 <= +0
 c97: +1 x76 -1 x6 <= +0
 c98: +1 x77 -1 x7 <= +0
 c99: +1 x78 -1 x8 <= +0
 c100: +1 x79 -1 x9 <= +0
 c101: +1 x80 -1 x0 <= +0
 c102: +1 x81 -1 x1 <= +0
 c103: +1 x82 -1 x2 <= +0
 c104: +1 x83 -1 x3 <= +0
 c105: +1 x84 -1 x4 <= +0
 c106: +1 x85 -1 x5 <= +0
 c107: +1 x86 -1 x6 <= +0
 c108: +1 x87 -1 x7 <= +0
 c109: +1 x88 -1 x8 <= +0
 c110: +1 x89 -1 x9 <= +0
 c111: +1 x90 -1 x0 <= +0
 c112: +1 x91 -1 x1 <= +0
 c113: +1 x92 -1 x2 <= +0
 c114: +1 x93 -1 x3 <= +0
 c115: +1 x94 -1 x4 <= +0
 c116: +1 x95 -1 x5 <= +0
 c117: +1 x96 -1 x6 <= +0
 c118: +1 x97 -1 x7 <= +0
 c119: +1 x98 -1 x8 <= +0
 c120: +1 x99 -1 x9 <= +0
 c121: +1 x100 -1 x0 <= +0
 c122: +1 x101 -1 x1 <= +0
 c123: +1 x102 -1 x2 <= +0
 c124: +1 x103 -1 x3 <= +0
 c125: +1 x104 -1 x4 <= +0
 c126: +1 x105 -1 x5 <= +0
 c127: +1 x106 -1 x6 <= +0
 c128: +1 x107 -1 x7 <= +0
 c129: +1 x108 -1 x8 <= +0
 c130: +1 x109 -1 x9 <= +0
 c131: +1 x110 -1 x0 <= +0
 c132: +1 x111 -1 x1 <= +0
 c133: +1 x112 -1 x2 <= +0
 c134: +1 x113 -1 x3 <= +0
 c135: +1 x114 -1 x4 <= +0
 c136: +1 x115 -1 x5 <= +0
 c137: +1 x116 -1 x6 <= +0
 c138: +1 x117 -1 x7 <= +0
 c139: +1 x118 -1 x8 <= +0
 c140: +1 x119 -1 x9 <= +0
 c141: +1 x120 -1 x0 <= +0
 c142: +1 x121 -1 x1 <= +0
 c143: +1 x122 -1 x2 <= +0
 c144: +1 x123 -1 x3 <= +0
 c145: +1 x124 -1 x4 <= +0
 c146: +1 x125 -1 x5 <= +0
 c147: +1 x126 -1 x6 <= +0
 c148: +1 x127 -1 x7 <= +0
 c149: +1 x128 -1 x8 <= +0
 c150: +1 x129 -1 x9 <= +0
 c151: +1 x130 -1 x0 <= +0
 c152: +1 x131 -1 x1 <= +0
 c153: +1 x132 -1 x2 <= +0
 c154: +1 x133 -1 x3 <= +0
 c155: +1 x134 -1 x4 <= +0
 c156: +1 x135 -1 x5 <= +0
 c157: +1 x136 -1 x6 <= +0
 c158: +1 x137 -1 x7 <= +0
 c159: +1 x138 -1 x8 <= +0
 c160: +1 x139 -1 x9 <= +0
 c161: +1 x140 -1 x0 <= +0
 c162: +1 x141 -1 x1 <= +0
 c163: +1 x142 -1 x2 <= +0
 c164: +1 x143 -1 x3 <= +0
 c165: +1 x144 -1 x4 <= +0
 c166: +1 x145 -1 x5 <= +0
 c167: +1 x146 -1 x6 <= +0
 c168: +1 x147 -1 x7 <= +0
 c169: +1 x148 -1 x8 <= +0
 c170: +1 x149 -1 x9 <= +0
 c171: +1 x150 -1 x0 <= +0
 c172: +1 x151 -1 x1 <= +0
 c173: +1 x152 -1 x2 <= +0
 c174: +1 x153 -1 x3 <= +0
 c175: +1 x154 -1 x4 <= +0
 c176: +1 x155 -1 x5 <= +0
 c177: +1 x156 -1 x6 <= +0
 c178: +1 x157 -1 x7 <= +0
 c179: +1 x158 -1 x8 <= +0
 c180: +1 x159 -1 x9 <= +0
 c181: +1 x160 -1 x0 <= +0
 c182: +1 x161 -1 x1 <= +0
 c183: +1 x162 -1 x2 <= +0
 c184: +1 x163 -1 x3 <= +0
 c185: +1 x164 -1 x4 <= +0
 c186: +1 x165 -1 x5 <= +0
 c187: +1 x166 -1 x6 <= +0
 c188: +1 x167 -1 x7 <= +0
 c189: +1 x168 -1 x8 <= +0
 c190: +1 x169 -1 x9 <= +0
 c191: +1 x170 -1 x0 <= +0
 c192: +1 x171 -1 x1 <= +0
 c193: +1 x172 -1 x2 <= +0
 c194: +1 x173 -1 x3 <= +0
 c195: +1 x174 -1 x4 <= +0
 c196: +1 x175 -1 x5 <= +0
 c197: +1 x176 -1 x6 <= +0
 c198: +1 x177 -1 x7 <= +0
 c199: +1 x178 -1 x8 <= +0
 c200: +1 x179 -1 x9 <= +0
 c201: +1 x180 -1 x0 <= +0
 c202: +1 x181 -1 x1 <= +0
 c203: +1 x182 -1 x2 <= +0
 c204: +1 x183 -1 x3 <= +0
 c205: +1 x184 -1 x4 <= +0
 c206: +1 x185 -1 x5 <= +0
 c207: +1 x186 -1 x6 <= +0
 c208: +1 x187 -1 x7 <= +0
 c209: +1 x188 -1 x8 <= +0
 c210: +1 x189 -1 x9 <= +0
 c211: +1 x190 -1 x0 <= +0
 c212: +1 x191 -1 x1 <= +0
 c213: +1 x192 -1 x2 <= +0
 c214: +1 x193 -1 x3 <= +0
 c215: +1 x194 -1 x4 <= +0
 c216: +1 x195 -1 x5 <= +0
 c217: +1 x196 -1 x6 <= +0
 c218: +1 x197 -1 x7 <= +0
 c219: +1 x198 -1 x8 <= +0
 c220: +1 x199 -1 x9 <= +0
 c221: +1 x200 -1 x0 <= +0
 c222: +1 x201 -1 x1 <= +0
 c223: +1 x202 -1 x2 <= +0
 c224: +1 x203 -1 x3 <= +0
 c225: +1 x204 -1 x4 <= +0
 c226: +1 x205 -1 x5 <= +0
 c227: +1 x206 -1 x6 <= +0
 c228: +1 x207 -1 x7 <= +0
 c229: +1 x208 -1 x8 <= +0
 c230: +1 x209 -1 x9 <= +0
Bounds
 0 <= x0 <= 1
 0 <= x1 <= 1
 0 <= x2 <= 1
 0 <= x3 <= 1
 0 <= x4 <= 1
 0 <= x5 <= 1
 0 <= x6 <= 1
 0 <= x7 <= 1
 0 <= x8 <= 1
 0 <= x9 <= 1
 0 <= x10 <= 1
 0 <= x11 <= 1
 0 <= x12 <= 1
 0 <= x13 <= 1
 0 <= x14 <= 1
 0 <= x15 <= 1
 0 <= x16 <= 1
 0 <= x17 <= 1
 0 <= x18 <= 1
 0 <= x19 <= 1
 0 <= x20 <= 1
 0 <= x21 <= 1
 0 <= x22 <= 1
 0 <= x23 <= 1
 0 <= x24 <= 1
 0 <= x25 <= 1
 0 <= x26 <= 1
 0 <= x27 <= 1
 0 <= x28 <= 1
 0 <= x29 <= 1
 0 <= x30 <= 1
 0 <= x31 <= 1
 0 <= x32 <= 1
 0 <= x33 <= 1
 0 <= x34 <= 1
 0 <= x35 <= 1
 0 <= x36 <= 1
 0 <= x37 <= 1
 0 <= x38 <= 1
 0 <= x39 <= 1
 0 <= x40 <= 1
 0 <= x41 <= 1
 0 <= x42 <= 1
 0 <= x43 <= 1
 0 <= x44 <= 1
 0 <= x45 <= 1
 0 <= x46 <= 1
 0 <= x47 <= 1
 0 <= x48 <= 1
 0 <= x49 <= 1
 0 <= x50 <= 1
 0 <= x51 <= 1
 0 <= x52 <= 1
 0 <= x53 <= 1
 0 <= x54 <= 1
 0 <= x55 <= 1
 0 <= x56 <= 1
 0 <= x57 <= 1
 0 <= x58 <= 1
 0 <= x59 <= 1
 0 <= x60 <= 1
 0 <= x61 <= 1
 0 <= x62 <= 1
 0 <= x63 <= 1
 0 <= x64 <= 1
 0 <= x65 <= 1
 0 <= x66 <= 1
 0 <= x67 <= 1
 0 <= x68 <= 1
 0 <= x69 <= 1
 0 <= x70 <= 1
 0 <= x71 <= 1
 0 <= x72 <= 1
 0 <= x73 <= 1
 0 <= x74 <= 1
 0 <= x75 <= 1
 0 <= x76 <= 1
 0 <= x77 <= 1
 0 <= x78 <= 1
 0 <= x79 <= 1
 0 <= x80 <= 1
 0 <= x81 <= 1
 0 <= x82 <= 1
 0 <= x83 <= 1
 0 <= x84 <= 1
 0 <= x85 <= 1
 0 <= x86 <= 1
 0 <= x87 <= 1
 0 <= x88 <= 1
 0 <= x89 <= 1
 0 <= x90 <= 1
 0 <= x91 <= 1
 0 <= x92 <= 1
 0 <= x93 <= 1
 0 <= x94 <= 1
 0 <= x95 <= 1
 0 <= x96 <= 1
 0 <= x97 <= 1
 0 <= x98 <= 1
 0 <= x99 <= 1
 0 <= x100 <= 1
 0 <= x101 <= 1
 0 <= x102 <= 1
 0 <= x103 <= 1
 0 <= x104 <= 1
 0 <= x105 <= 1
 0 <= x106 <= 1
 0 <= x107 <= 1
 0 <= x108 <= 1
 0 <= x109 <= 1
 0 <= x110 <= 1
 0 <= x111 <= 1
 0 <= x112 <= 1
 0 <= x113 <= 1
 0 <= x114 <= 1
 0 <= x115 <= 1
 0 <= x116 <= 1
 0 <= x117 <= 1
 0 <= x118 <= 1
 0 <= x119 <= 1
 0 <= x120 <= 1
 0 <= x121 <= 1
 0 <= x122 <= 1
 0 <= x123 <= 1
 0 <= x124 <= 1
 0 <= x125 <= 1
 0 <= x126 <= 1
 0 <= x127 <= 1
 0 <= x128 <= 1
 0 <= x129 <= 1
 0 <= x130 <= 1
 0 <= x131 <= 1
 0 <= x132 <= 1
 0 <= x133 <= 1
 0 <= x134 <= 1
 0 <= x135 <= 1
 0 <= x136 <= 1
 0 <= x137 <= 1
 0 <= x138 <= 1
 0 <= x139 <= 1
 0 <= x140 <= 1
 0 <= x141 <= 1
 0 <= x142 <= 1
 0 <= x143 <= 1
 0 <= x144 <= 1
 0 <= x145 <= 1
 0 <= x146 <= 1
 0 <= x147 <= 1
 0 <= x148 <= 1
 0 <= x149 <= 1
 0 <= x150 <= 1
 0 <= x151 <= 1
 0 <= x152 <= 1
 0 <= x153 <= 1
 0 <= x154 <= 1
 0 <= x155 <= 1
 0 <= x156 <= 1
 0 <= x157 <= 1
 0 <= x158 <= 1
 0 <= x159 <= 1
 0 <= x160 <= 1
 0 <= x161 <= 1
 0 <= x162 <= 1
 0 <= x163 <= 1
 0 <= x164 <= 1
 0 <= x165 <= 1
 0 <= x166 <= 1
 0 <= x167 <= 1
 0 <= x168 <= 1
 0 <= x169 <= 1
 0 <= x170 <= 1
 0 <= x171 <= 1
 0 <= x172 <= 1
 0 <= x173 <= 1
 0 <= x174 <= 1
 0 <= x175 <= 1
 0 <= x176 <= 1
 0 <= x177 <= 1
 0 <= x178 <= 1
 0 <= x179 <= 1
 0 <= x180 <= 1
 0 <= x181 <= 1
 0 <= x182 <= 1
 0 <= x183 <= 1
 0 <= x184 <= 1
 0 <= x185 <= 1
 0 <= x186 <= 1
 0 <= x187 <= 1
 0 <= x188 <= 1
 0 <= x189 <= 1
 0 <= x190 <= 1
 0 <= x191 <= 1
 0 <= x192 <= 1
 0 <= x193 <= 1
 0 <= x194 <= 1
 0 <= x195 <= 1
 0 <= x196 <= 1
 0 <= x197 <= 1
 0 <= x198 <= 1
 0 <= x199 <= 1
 0 <= x200 <= 1
 0 <= x201 <= 1
 0 <= x202 <= 1
 0 <= x203 <= 1
 0 <= x204 <= 1
 0 <= x205 <= 1
 0 <= x206 <= 1
 0 <= x207 <= 1
 0 <= x208 <= 1
 0 <= x209 <= 1
Binaries
 x0 x1 x2 x3 x4 x5 x6 x7 x8 x9 x10 x11 x12 x13 x14 x15 x16 x17 x18 x19 x20 x21 x22 x23 x24 x25 x26 x27
 x28 x29 x30 x31 x32 x33 x34 x35 x36 x37 x38 x39 x40 x41 x42 x43 x44 x45 x46 x47 x48 x49 x50 x51 x52 x53
 x54 x55 x56 x57 x58 x59 x60 x61 x62 x63 x64 x65 x66 x67 x68 x69 x70 x71 x72 x73 x74 x75 x76 x77 x78 x79
 x80 x81 x82 x83 x84 x85 x86 x87 x88 x89 x90 x91 x92 x93 x94 x95 x96 x97 x98 x99 x100 x101 x102 x103 x104
 x105 x106 x107 x108 x109 x110 x111 x112 x113 x114 x115 x116 x117 x118 x119 x120 x121 x122 x123 x124 x125
 x126 x127 x128 x129 x130 x131 x132 x133 x134 x135 x136 x137 x138 x139 x140 x141 x142 x143 x144 x145 x146
 x147 x148 x149 x150 x151 x152 x153 x154 x155 x156 x157 x158 x159 x160 x161 x162 x163 x164 x165 x166 x167
 x168 x169 x170 x171 x172 x173 x174 x175 x176 x177 x178 x179 x180 x181 x182 x183 x184 x185 x186 x187 x188
 x189 x190 x191 x192 x193 x194 x195 x196 x197 x198 x199 x200 x201 x202 x203 x204 x205 x206 x207 x208 x209
End
